
n_res = 4;
rcap = [57, 57, 527, 564];
rtype = [1, 1, 2, 2];
n_tasks = 100;
modes =  [{1, 2, 3}, {4, 5, 6}, {7, 8, 9}, {10, 11, 12}, {13, 14, 15}, {16, 17, 18}, {19, 20, 21}, {22, 23, 24}, {25, 26, 27}, {28, 29, 30}, {31, 32, 33}, {34, 35, 36}, {37, 38, 39}, {40, 41, 42}, {43, 44, 45}, {46, 47, 48}, {49, 50, 51}, {52, 53, 54}, {55, 56, 57}, {58, 59, 60}, {61, 62, 63}, {64, 65, 66}, {67, 68, 69}, {70, 71, 72}, {73, 74, 75}, {76, 77, 78}, {79, 80, 81}, {82, 83, 84}, {85, 86, 87}, {88, 89, 90}, {91, 92, 93}, {94, 95, 96}, {97, 98, 99}, {100, 101, 102}, {103, 104, 105}, {106, 107, 108}, {109, 110, 111}, {112, 113, 114}, {115, 116, 117}, {118, 119, 120}, {121, 122, 123}, {124, 125, 126}, {127, 128, 129}, {130, 131, 132}, {133, 134, 135}, {136, 137, 138}, {139, 140, 141}, {142, 143, 144}, {145, 146, 147}, {148, 149, 150}, {151, 152, 153}, {154, 155, 156}, {157, 158, 159}, {160, 161, 162}, {163, 164, 165}, {166, 167, 168}, {169, 170, 171}, {172, 173, 174}, {175, 176, 177}, {178, 179, 180}, {181, 182, 183}, {184, 185, 186}, {187, 188, 189}, {190, 191, 192}, {193, 194, 195}, {196, 197, 198}, {199, 200, 201}, {202, 203, 204}, {205, 206, 207}, {208, 209, 210}, {211, 212, 213}, {214, 215, 216}, {217, 218, 219}, {220, 221, 222}, {223, 224, 225}, {226, 227, 228}, {229, 230, 231}, {232, 233, 234}, {235, 236, 237}, {238, 239, 240}, {241, 242, 243}, {244, 245, 246}, {247, 248, 249}, {250, 251, 252}, {253, 254, 255}, {256, 257, 258}, {259, 260, 261}, {262, 263, 264}, {265, 266, 267}, {268, 269, 270}, {271, 272, 273}, {274, 275, 276}, {277, 278, 279}, {280, 281, 282}, {283, 284, 285}, {286, 287, 288}, {289, 290, 291}, {292, 293, 294}, {295, 296, 297}, {298, 299, 300}];
succ =  [{33, 30, 29, 28, 27, 26, 22, 21, 17, 9}, {36, 31, 22, 19, 17, 10}, {44, 37, 22, 10}, {37, 34, 25, 10}, {59, 54, 46, 44, 42, 40, 39, 34, 33, 29, 22}, {53, 47, 44, 42, 37, 36, 33, 26, 23, 21}, {42, 41, 20, 19, 14}, {61, 54, 50, 48, 45, 43, 42, 38, 37, 35, 31, 29, 26}, {82, 54, 51, 44, 38, 37, 36, 34, 19}, {53, 48, 47, 42, 39, 33, 26, 21}, {59, 41, 40, 35, 29, 15}, {64, 59, 57, 54, 52, 49, 46, 45, 38, 34, 33, 29}, {70, 54, 48, 47, 46, 45, 42, 35, 33, 31, 30}, {54, 50, 49, 48, 46, 45, 44, 38, 35, 33, 29}, {70, 67, 64, 61, 57, 53, 50, 49, 48, 47, 46, 45, 42, 38}, {47, 45, 42, 38, 37, 33, 26}, {82, 70, 67, 65, 61, 53, 51, 50, 46, 43, 41, 38, 37}, {70, 59, 52, 50, 49, 46, 44, 35, 33}, {70, 63, 62, 61, 60, 59, 55, 53, 52, 50, 49, 46, 45, 35}, {82, 70, 67, 63, 60, 59, 53, 51, 49, 48, 46, 35}, {70, 67, 63, 60, 59, 55, 54, 52, 50, 49, 46, 45, 35}, {82, 70, 69, 62, 52, 51, 50, 47, 45, 38, 35}, {70, 67, 63, 61, 60, 59, 50, 49, 48, 46, 35}, {80, 77, 61, 56, 53, 50, 49, 47, 44, 42, 39}, {77, 65, 64, 62, 59, 57, 55, 51, 47, 46, 45}, {82, 77, 70, 66, 65, 64, 63, 62, 60, 58, 57, 56, 52, 51, 46}, {82, 70, 69, 62, 55, 45, 35}, {70, 64, 63, 59, 50, 42, 38}, {100, 82, 80, 77, 76, 74, 72, 70, 68, 67, 65, 63, 60, 58, 53}, {82, 80, 77, 76, 68, 65, 63, 61, 60, 58, 56, 53}, {81, 77, 62, 56, 53, 52, 49, 44}, {81, 76, 69, 66, 65, 64, 63, 62, 45}, {100, 82, 80, 77, 69, 65, 62, 61, 58, 55, 51}, {80, 75, 67, 53, 48, 47}, {98, 81, 77, 66, 65, 64, 58, 57, 56}, {100, 99, 98, 93, 79, 78, 77, 76, 75, 73, 72, 71, 70, 69, 66, 55}, {77, 69, 62, 58, 57, 56}, {100, 99, 98, 81, 80, 79, 77, 72, 58, 55}, {100, 99, 82, 76, 72, 64, 60, 58, 55}, {100, 98, 75, 73, 71, 69, 66, 65, 64, 61, 55}, {99, 98, 95, 87, 79, 76, 68, 66, 58, 56}, {100, 97, 95, 82, 76, 75, 74, 73, 72, 71, 66, 62, 52}, {97, 94, 93, 92, 80, 79, 77, 76, 74, 73, 71, 64, 63}, {100, 94, 87, 74, 72, 68, 63, 58}, {80, 68, 58, 56}, {100, 98, 94, 93, 89, 80, 79, 78, 76, 75, 74, 73, 72, 71, 69}, {97, 93, 87, 78, 73, 68, 66, 63, 60}, {95, 79, 72, 62, 55}, {99, 98, 96, 93, 90, 89, 78, 76, 75, 73, 72, 65}, {100, 96, 87, 74, 58}, {99, 98, 96, 93, 91, 89, 87, 85, 84, 81, 79, 78, 71}, {99, 98, 94, 93, 91, 89, 88, 87, 86, 85, 84, 83, 68}, {98, 93, 92, 90, 89, 73, 71, 69, 66}, {100, 97, 94, 87, 85, 84, 83, 78, 77, 71}, {97, 94, 91, 89, 87, 86, 85, 83, 74, 68}, {100, 94, 93, 92, 91, 89, 88, 85, 74, 72}, {97, 93, 91, 90, 88, 80, 76, 75, 72}, {97, 93, 89, 85, 78, 75, 73, 71}, {100, 97, 95, 93, 87, 85, 79, 72}, {94, 91, 90, 89, 85, 81, 71}, {99, 94, 85, 74, 72}, {99, 98, 96, 93, 89, 88, 87, 84}, {99, 98, 89, 86, 85, 84}, {95, 90, 87, 85, 84, 83}, {95, 94, 87, 79}, {88, 85, 84, 83}, {95, 89, 84, 83}, {96, 92, 90}, {87, 85, 83}, {88, 86, 85}, {88, 86}, {86, 83}, {91, 84}, {90, 84}, {84, 83}, {85, 83}, {96, 95}, {92}, {83}, {87}, {83}, {84}, {}, {}, {}, {}, {}, {}, {}, {}, {}, {}, {}, {}, {}, {}, {}, {}, {}, {}];
n_opt = 300;
dur = [1, 4, 5, 2, 8, 9, 2, 7, 9, 4, 9, 10, 4, 5, 7, 2, 5, 6, 1, 4, 8, 4, 6, 10, 3, 4, 10, 1, 6, 8, 2, 6, 7, 1, 2, 9, 4, 5, 7, 6, 7, 10, 1, 2, 9, 1, 4, 6, 5, 6, 9, 3, 4, 9, 3, 4, 8, 2, 4, 9, 1, 7, 8, 6, 7, 10, 3, 6, 9, 1, 2, 10, 1, 6, 8, 3, 4, 7, 3, 8, 9, 5, 8, 9, 2, 5, 9, 2, 9, 10, 3, 4, 9, 1, 6, 10, 6, 7, 8, 3, 5, 6, 5, 6, 10, 2, 3, 4, 1, 2, 6, 1, 4, 9, 2, 5, 8, 3, 4, 10, 4, 8, 9, 2, 7, 9, 1, 6, 7, 2, 4, 7, 2, 4, 5, 2, 4, 5, 4, 8, 10, 1, 8, 9, 3, 5, 8, 2, 3, 4, 6, 7, 8, 2, 3, 5, 3, 8, 9, 3, 5, 10, 4, 9, 10, 7, 8, 10, 3, 5, 6, 4, 7, 9, 2, 9, 10, 5, 6, 8, 1, 3, 4, 2, 5, 9, 6, 7, 8, 2, 5, 10, 6, 7, 8, 1, 2, 9, 4, 5, 8, 4, 8, 9, 3, 4, 10, 5, 6, 7, 2, 5, 8, 3, 4, 5, 6, 8, 9, 1, 4, 8, 3, 5, 8, 1, 7, 9, 2, 7, 9, 2, 6, 7, 1, 7, 8, 2, 3, 9, 1, 2, 7, 2, 3, 5, 4, 5, 10, 1, 2, 9, 2, 3, 6, 2, 6, 8, 2, 5, 9, 2, 6, 9, 2, 6, 8, 3, 5, 9, 6, 8, 9, 1, 2, 3, 3, 4, 8, 8, 9, 10, 5, 6, 9, 2, 3, 5, 3, 6, 7, 3, 6, 10, 1, 6, 8, 2, 3, 4];
rreq = [|9, 7, 4, 6, 6, 6, 8, 5, 3, 4, 4, 4, 1, 1, 1, 7, 6, 6, 9, 5, 3, 7, 7, 5, 6, 6, 5, 8, 6, 5, 5, 5, 5, 9, 8, 8, 7, 7, 7, 9, 9, 8, 7, 5, 4, 8, 6, 3, 1, 1, 1, 9, 7, 5, 9, 6, 5, 7, 5, 3, 7, 5, 3, 8, 6, 6, 9, 7, 7, 6, 5, 4, 8, 8, 6, 9, 8, 8, 5, 4, 2, 6, 2, 2, 7, 6, 5, 8, 4, 3, 4, 4, 3, 10, 6, 4, 3, 2, 1, 6, 3, 2, 5, 5, 3, 8, 8, 8, 8, 5, 4, 8, 7, 7, 8, 6, 6, 3, 3, 2, 8, 7, 7, 5, 3, 3, 9, 6, 3, 3, 2, 2, 9, 8, 7, 6, 6, 3, 7, 5, 5, 3, 3, 1, 4, 4, 4, 10, 4, 2, 6, 4, 2, 7, 4, 2, 7, 6, 4, 9, 9, 9, 8, 7, 6, 5, 5, 5, 8, 6, 1, 9, 8, 7, 8, 7, 7, 3, 3, 3, 2, 2, 2, 10, 8, 7, 6, 5, 3, 10, 10, 10, 9, 9, 9, 10, 6, 6, 7, 7, 5, 6, 4, 2, 4, 4, 4, 10, 6, 5, 6, 5, 5, 8, 7, 7, 5, 4, 2, 4, 2, 2, 5, 4, 3, 8, 8, 6, 5, 4, 3, 6, 6, 5, 5, 2, 1, 7, 7, 5, 10, 9, 8, 8, 5, 2, 10, 9, 7, 5, 3, 2, 8, 6, 6, 6, 6, 6, 8, 7, 6, 5, 5, 5, 9, 8, 8, 2, 2, 2, 5, 4, 2, 9, 8, 7, 7, 6, 6, 5, 4, 4, 5, 5, 4, 8, 6, 4, 9, 5, 2, 6, 6, 6, 9, 6, 5, 10, 8, 8
 |10, 7, 7, 4, 3, 3, 5, 4, 2, 9, 6, 4, 2, 2, 1, 9, 4, 3, 10, 8, 6, 9, 8, 8, 6, 3, 2, 6, 4, 4, 5, 2, 2, 2, 2, 2, 8, 5, 4, 8, 6, 5, 5, 4, 4, 6, 4, 4, 7, 7, 7, 6, 5, 4, 9, 8, 8, 9, 6, 5, 5, 5, 5, 7, 4, 2, 9, 7, 5, 5, 5, 5, 8, 7, 7, 8, 7, 7, 10, 10, 10, 8, 5, 4, 8, 8, 7, 9, 8, 7, 6, 3, 2, 5, 5, 2, 10, 8, 6, 9, 6, 3, 10, 9, 8, 7, 5, 3, 9, 6, 4, 6, 6, 6, 8, 5, 1, 6, 4, 3, 8, 8, 5, 5, 4, 4, 1, 1, 1, 9, 6, 6, 4, 3, 2, 1, 1, 1, 10, 6, 5, 9, 5, 4, 7, 4, 4, 7, 5, 4, 7, 7, 5, 5, 5, 5, 8, 8, 8, 6, 5, 4, 5, 4, 4, 6, 5, 3, 8, 5, 1, 8, 6, 5, 6, 3, 3, 1, 1, 1, 7, 6, 6, 8, 6, 3, 7, 7, 7, 4, 2, 2, 8, 7, 6, 3, 3, 3, 5, 3, 1, 10, 6, 4, 4, 4, 4, 4, 2, 1, 9, 5, 3, 8, 8, 8, 8, 6, 6, 2, 1, 1, 7, 7, 6, 9, 8, 7, 6, 4, 2, 6, 5, 2, 10, 8, 7, 9, 9, 9, 9, 7, 7, 8, 7, 4, 3, 2, 2, 1, 1, 1, 6, 2, 2, 6, 6, 6, 7, 5, 5, 9, 6, 3, 5, 5, 3, 2, 1, 1, 7, 7, 4, 6, 6, 5, 10, 9, 9, 7, 7, 5, 9, 8, 5, 10, 6, 4, 8, 4, 1, 8, 7, 5, 9, 6, 5, 10, 5, 5
 |8, 8, 8, 3, 3, 3, 9, 5, 4, 4, 2, 2, 10, 9, 9, 7, 7, 7, 6, 6, 6, 7, 7, 4, 6, 5, 5, 3, 2, 2, 9, 6, 5, 4, 3, 2, 6, 6, 6, 9, 5, 1, 6, 6, 3, 7, 4, 3, 10, 4, 3, 9, 7, 7, 5, 5, 4, 5, 5, 5, 6, 6, 5, 8, 7, 2, 9, 4, 4, 4, 3, 3, 9, 9, 9, 8, 5, 3, 7, 5, 2, 4, 3, 3, 6, 6, 4, 6, 4, 2, 4, 4, 2, 7, 6, 4, 8, 5, 2, 6, 5, 3, 3, 1, 1, 7, 5, 5, 5, 4, 4, 10, 8, 6, 4, 4, 2, 9, 8, 8, 4, 4, 4, 8, 5, 2, 10, 7, 7, 9, 5, 4, 7, 5, 5, 4, 3, 2, 10, 9, 9, 2, 1, 1, 10, 8, 8, 1, 1, 1, 6, 4, 2, 7, 5, 5, 8, 7, 6, 8, 7, 3, 8, 6, 6, 5, 5, 5, 5, 4, 4, 4, 3, 3, 9, 9, 8, 8, 8, 8, 10, 8, 8, 6, 4, 3, 8, 8, 8, 5, 4, 3, 6, 5, 4, 3, 2, 2, 1, 1, 1, 10, 9, 8, 7, 6, 6, 5, 4, 3, 6, 3, 2, 8, 6, 3, 7, 6, 6, 6, 4, 3, 8, 8, 8, 9, 9, 9, 8, 5, 5, 4, 2, 2, 7, 7, 7, 6, 4, 4, 6, 6, 6, 9, 6, 5, 9, 5, 5, 2, 1, 1, 6, 6, 3, 9, 3, 1, 7, 4, 1, 4, 2, 2, 8, 7, 6, 8, 5, 2, 3, 3, 3, 5, 4, 1, 6, 3, 1, 6, 5, 5, 3, 1, 1, 4, 4, 3, 6, 5, 5, 6, 4, 3, 6, 5, 3, 4, 3, 3
 |6, 6, 5, 10, 10, 9, 7, 7, 5, 5, 5, 5, 5, 5, 5, 6, 6, 6, 8, 8, 8, 3, 3, 3, 4, 4, 3, 5, 4, 4, 5, 5, 5, 7, 4, 1, 4, 3, 2, 9, 9, 8, 8, 5, 5, 4, 4, 4, 7, 5, 2, 9, 6, 6, 10, 8, 8, 9, 8, 4, 8, 7, 5, 6, 5, 4, 5, 5, 5, 2, 2, 2, 4, 2, 2, 7, 6, 4, 8, 5, 2, 9, 6, 6, 4, 3, 2, 10, 5, 2, 6, 6, 6, 9, 5, 4, 8, 5, 2, 3, 3, 3, 4, 4, 2, 7, 6, 5, 7, 6, 5, 8, 7, 4, 4, 4, 4, 4, 2, 1, 1, 1, 1, 7, 7, 7, 3, 2, 2, 7, 7, 7, 9, 8, 8, 10, 9, 8, 7, 7, 7, 7, 6, 6, 10, 8, 7, 8, 7, 7, 8, 6, 4, 4, 3, 2, 9, 7, 3, 7, 3, 3, 9, 8, 6, 7, 6, 4, 8, 8, 8, 4, 2, 2, 7, 5, 5, 10, 9, 8, 8, 5, 4, 8, 5, 5, 8, 8, 8, 4, 3, 2, 10, 9, 8, 5, 5, 4, 7, 6, 5, 3, 2, 2, 7, 7, 6, 9, 8, 8, 8, 5, 5, 10, 6, 4, 10, 8, 8, 8, 7, 7, 6, 5, 2, 6, 5, 3, 6, 6, 6, 9, 4, 1, 8, 7, 7, 9, 5, 2, 5, 4, 3, 7, 6, 5, 8, 6, 4, 9, 6, 5, 7, 6, 5, 7, 6, 6, 5, 4, 4, 3, 3, 2, 10, 8, 7, 8, 8, 8, 5, 5, 3, 5, 3, 3, 9, 8, 7, 6, 3, 2, 7, 5, 3, 2, 2, 2, 5, 5, 5, 8, 4, 3, 2, 1, 1, 7, 6, 5|];